Version identifier: 22.1.0.0 | 2022-03-09 | 1a383f8ce
CPXPARAM_Threads                                 1
CPXPARAM_MIP_Strategy_VariableSelect             3
CPXPARAM_TimeLimit                               600
Tried aggregator 1 time.
Reduced MIP has 2425 rows, 14000 columns, and 112865 nonzeros.
Reduced MIP has 12000 binaries, 2000 generals, 0 SOSs, and 0 indicators.
Presolve time = 0.06 sec. (44.08 ticks)
Found incumbent of value 35.432467 after 0.15 sec. (110.37 ticks)
Tried aggregator 1 time.
Detecting symmetries...
Reduced MIP has 2425 rows, 14000 columns, and 112865 nonzeros.
Reduced MIP has 12000 binaries, 2000 generals, 0 SOSs, and 0 indicators.
Presolve time = 0.07 sec. (53.91 ticks)
Probing time = 0.01 sec. (10.83 ticks)
Clique table members: 403.
MIP emphasis: balance optimality and feasibility.
MIP search method: dynamic search.
Parallel mode: none, using 1 thread.
Root relaxation solution time = 1.42 sec. (1431.32 ticks)

        Nodes                                         Cuts/
   Node  Left     Objective  IInf  Best Integer    Best Bound    ItCnt     Gap

*     0+    0                           35.4325        0.0000           100.00%
      0     0        0.0000  2177       35.4325        0.0000     5275  100.00%
      0     0        0.0000   480       35.4325   ZeroHalf: 1     5502  100.00%
      0     0        0.0000   757       35.4325      Cuts: 24     7758  100.00%
*     0+    0                            0.9713        0.0000           100.00%
*     0+    0                            0.0767        0.0000           100.00%
*     0+    0                            0.0683        0.0000           100.00%
*     0+    0                            0.0318        0.0000           100.00%
*     0+    0                            0.0200        0.0000           100.00%
*     0+    0                            0.0178        0.0000           100.00%
      0     0  -1.00000e+75     0        0.0178        0.0000     7758  100.00%
Detecting symmetries...
      0     2        0.0000   330        0.0178        0.0000     7758  100.00%
Elapsed time = 32.56 sec. (33711.54 ticks, tree = 0.01 MB, solutions = 7)
      1     3        0.0000   365        0.0178        0.0000    20298  100.00%
      2     4        0.0000   423        0.0178        0.0000    24799  100.00%
      3     5        0.0000   296        0.0178        0.0000    29394  100.00%
      4     6        0.0000   286        0.0178        0.0000    29978  100.00%
      5     7        0.0000   246        0.0178        0.0000    35570  100.00%
      6     8        0.0000   635        0.0178        0.0000    39334  100.00%
      7     9        0.0000   250        0.0178        0.0000    40234  100.00%
      8    10        0.0000   421        0.0178        0.0000    44471  100.00%
      9    11        0.0000   281        0.0178        0.0000    47805  100.00%
     10    12        0.0000   278        0.0178        0.0000    49430  100.00%
Elapsed time = 54.93 sec. (56947.33 ticks, tree = 0.17 MB, solutions = 7)
     11    13        0.0000   403        0.0178        0.0000    52556  100.00%
     13    15        0.0000   454        0.0178        0.0000    59001  100.00%
     15    17        0.0000   269        0.0178        0.0000    63192  100.00%
     17    19        0.0000   326        0.0178        0.0000    67698  100.00%
     18    20       -0.0000  1149        0.0178        0.0000    69302  100.00%
     19    21        0.0000   300        0.0178        0.0000    82115  100.00%
     20    22        0.0000   359        0.0178        0.0000    82491  100.00%
     21    23        0.0000   377        0.0178        0.0000    85215  100.00%
     22    24        0.0000   473        0.0178        0.0000    91685  100.00%
     24    26        0.0000   311        0.0178        0.0000    97023  100.00%
Elapsed time = 76.91 sec. (78412.48 ticks, tree = 0.47 MB, solutions = 7)
     25    27        0.0000   427        0.0178        0.0000   102652  100.00%
     27    29        0.0000   253        0.0178        0.0000   104880  100.00%
     29    31        0.0000   189        0.0178        0.0000   112257  100.00%
*    30+   30                            0.0087        0.0000           100.00%
     30    32        0.0000   189        0.0087        0.0000   113200  100.00%
     31    33        0.0000   591        0.0087        0.0000   115033  100.00%
     32    34        0.0000   169        0.0087        0.0000   117855  100.00%
     33    35        0.0000   448        0.0087        0.0000   124387  100.00%
     34    36       -0.0000   696        0.0087        0.0000   126669  100.00%
     35    37        0.0000   563        0.0087        0.0000   129436  100.00%
     36    38        0.0000   213        0.0087        0.0000   140625  100.00%
Elapsed time = 110.48 sec. (113064.35 ticks, tree = 0.76 MB, solutions = 8)
     37    39       -0.0000   377        0.0087        0.0000   145069  100.00%
     39    41        0.0000   423        0.0087        0.0000   147877  100.00%
     40    42        0.0000   410        0.0087        0.0000   150022  100.00%
     41    43        0.0000   545        0.0087        0.0000   152995  100.00%
     43    45        0.0000   388        0.0087        0.0000   157961  100.00%
     44    46        0.0000   347        0.0087        0.0000   160824  100.00%
     45    47        0.0000   405        0.0087        0.0000   162577  100.00%
     47    49        0.0000   352        0.0087        0.0000   164090  100.00%
     48    50        0.0000   369        0.0087        0.0000   167651  100.00%
     49    51        0.0000   415        0.0087        0.0000   169631  100.00%
Elapsed time = 128.71 sec. (131440.86 ticks, tree = 0.94 MB, solutions = 8)
     51    53        0.0000   311        0.0087        0.0000   174180  100.00%
     52    54        0.0000   326        0.0087        0.0000   175292  100.00%
     54    56        0.0000   351        0.0087        0.0000   177943  100.00%
     55    57        0.0000   315        0.0087        0.0000   179371  100.00%
     56    58        0.0000   393        0.0087        0.0000   180779  100.00%
     58    60        0.0000   457        0.0087        0.0000   183352  100.00%
     60    62        0.0000   460        0.0087        0.0000   184374  100.00%
     62    64        0.0000   361        0.0087        0.0000   187218  100.00%
     63    65        0.0000   721        0.0087        0.0000   189591  100.00%
     65    66        0.0000   659        0.0087        0.0000   191921  100.00%
Elapsed time = 153.24 sec. (155593.82 ticks, tree = 1.32 MB, solutions = 8)
     67    68        0.0000   349        0.0087        0.0000   195485  100.00%
     68    69        0.0000   551        0.0087        0.0000   197794  100.00%
     69    70        0.0000   337        0.0087        0.0000   199143  100.00%
     70    71        0.0000   290        0.0087        0.0000   201762  100.00%
     72    73        0.0000   295        0.0087        0.0000   206889  100.00%
     73    74        0.0000   277        0.0087        0.0000   209733  100.00%
     74    75        0.0000   325        0.0087        0.0000   213665  100.00%
     75    76        0.0000   315        0.0087        0.0000   217246  100.00%
     77    78        0.0000   303        0.0087        0.0000   222101  100.00%
     78    79        0.0000   307        0.0087        0.0000   225125  100.00%
Elapsed time = 173.36 sec. (175602.70 ticks, tree = 1.49 MB, solutions = 8)
     79    80        0.0000   453        0.0087        0.0000   227282  100.00%
     80    81        0.0000   314        0.0087        0.0000   229526  100.00%
     81    82        0.0000   551        0.0087        0.0000   234856  100.00%
     83    84        0.0000   540        0.0087        0.0000   239758  100.00%
     84    85        0.0000   324        0.0087        0.0000   241011  100.00%
     85    86        0.0000   274        0.0087        0.0000   246110  100.00%
     86    87        0.0000   583        0.0087        0.0000   247620  100.00%
     87    88        0.0000   538        0.0087        0.0000   248764  100.00%
     89    90        0.0000   666        0.0087        0.0000   251658  100.00%
     90    91        0.0000   590        0.0087        0.0000   254392  100.00%
Elapsed time = 203.87 sec. (205812.65 ticks, tree = 1.73 MB, solutions = 8)
     91    92        0.0000   721        0.0087        0.0000   256913  100.00%
     93    94        0.0000   751        0.0087        0.0000   259267  100.00%
     95    96        0.0000   765        0.0087        0.0000   260984  100.00%
     97    98        0.0000   611        0.0087        0.0000   262487  100.00%
     98    99        0.0000   642        0.0087        0.0000   265282  100.00%
    100   101        0.0000   549        0.0087        0.0000   268213  100.00%
    101   102        0.0000   501        0.0087        0.0000   270249  100.00%
    102   103        0.0000   498        0.0087        0.0000   271866  100.00%
    103   104        0.0000   516        0.0087        0.0000   274527  100.00%
    104   105        0.0000   527        0.0087        0.0000   276396  100.00%
Elapsed time = 220.17 sec. (221813.31 ticks, tree = 2.08 MB, solutions = 8)
    106   107        0.0000   520        0.0087        0.0000   277793  100.00%
    107   108        0.0000   468        0.0087        0.0000   280655  100.00%
    108   109        0.0000   638        0.0087        0.0000   282251  100.00%
    110   111        0.0000   533        0.0087        0.0000   284773  100.00%
    111   111        0.0000   559        0.0087        0.0000   288586  100.00%
    113   113        0.0000   526        0.0087        0.0000   290701  100.00%
    115   115        0.0000   497        0.0087        0.0000   291260  100.00%
    117   117        0.0000   623        0.0087        0.0000   293669  100.00%
    119   119        0.0000   559        0.0087        0.0000   295393  100.00%
    120   120        0.0000   810        0.0087        0.0000   298908  100.00%
Elapsed time = 236.81 sec. (237838.21 ticks, tree = 2.43 MB, solutions = 8)
    123   123        0.0000   435        0.0087        0.0000   302391  100.00%
    124   124        0.0000   406        0.0087        0.0000   304727  100.00%
    125   125       -0.0000   643        0.0087        0.0000   307340  100.00%
    127   127        0.0000   407        0.0087        0.0000   308873  100.00%
    129   129        0.0000   449        0.0087        0.0000   309508  100.00%
    131   131        0.0000   424        0.0087        0.0000   313128  100.00%
    133   133        0.0000   470        0.0087        0.0000   314178  100.00%
    135   135        0.0000   465        0.0087        0.0000   314650  100.00%
    137   137        0.0000   404        0.0087        0.0000   318684  100.00%
    141   141        0.0000   353        0.0087        0.0000   327409  100.00%
Elapsed time = 256.45 sec. (256814.21 ticks, tree = 2.97 MB, solutions = 8)
    145   145        0.0000   507        0.0087        0.0000   335103  100.00%
    150   150        0.0000   738        0.0087        0.0000   343051  100.00%
    155   155        0.0000   574        0.0087        0.0000   351131  100.00%
    160   160        0.0000   696        0.0087        0.0000   357278  100.00%
    165   165        0.0000   377        0.0087        0.0000   365230  100.00%
    169   169        0.0000   623        0.0087        0.0000   374202  100.00%
    173   173        0.0000   769        0.0087        0.0000   380435  100.00%
    178   178        0.0000   440        0.0087        0.0000   386917  100.00%
    182   182        0.0000   415        0.0087        0.0000   394385  100.00%
    188   188        0.0000   534        0.0087        0.0000   402895  100.00%
Elapsed time = 305.07 sec. (303290.77 ticks, tree = 4.15 MB, solutions = 8)
    193   193        0.0000   234        0.0087        0.0000   410103  100.00%
    197   197        0.0000   343        0.0087        0.0000   417866  100.00%
    203   203        0.0000   246        0.0087        0.0000   424172  100.00%
    207   207        0.0000   661        0.0087        0.0000   431989  100.00%
    212   212       -0.0000   580        0.0087        0.0000   438507  100.00%
    216   216        0.0000   548        0.0087        0.0000   446263  100.00%
    220   220        0.0000   662        0.0087        0.0000   450008  100.00%
    225   225        0.0000   522        0.0087        0.0000   455522  100.00%
    230   230        0.0000   487        0.0087        0.0000   464996  100.00%
    236   236        0.0007   572        0.0087        0.0000   474097  100.00%
Elapsed time = 351.42 sec. (347416.81 ticks, tree = 5.34 MB, solutions = 8)
    241   241       -0.0000   513        0.0087        0.0000   482161  100.00%
    244   244       -0.0000   496        0.0087        0.0000   493060  100.00%
    249   249       -0.0000   544        0.0087        0.0000   504930  100.00%
    254   254        0.0006   517        0.0087        0.0000   511842  100.00%
    258   258        0.0005   533        0.0087        0.0000   523612  100.00%
    263   263        0.0001   494        0.0087        0.0000   532185  100.00%
    269   269        0.0000   484        0.0087        0.0000   540505  100.00%
    274   274        0.0000   484        0.0087        0.0000   550710  100.00%
    278   278       -0.0000   425        0.0087        0.0000   561630  100.00%
    284   284       -0.0000   454        0.0087        0.0000   569255  100.00%
Elapsed time = 397.17 sec. (390777.24 ticks, tree = 6.53 MB, solutions = 8)
    289   289        0.0000   493        0.0087        0.0000   579536  100.00%
    294   294        0.0002   450        0.0087        0.0000   588158  100.00%
    298   298        0.0000   452        0.0087        0.0000   599558  100.00%
    305   305        0.0011   483        0.0087        0.0000   608369  100.00%
    311   311        0.0000   442        0.0087        0.0000   618410  100.00%
    316   316        0.0009   552        0.0087        0.0000   627137  100.00%
    324   324        0.0011   580        0.0087        0.0000   634053  100.00%
    332   332        0.0003   462        0.0087        0.0000   640647  100.00%
    340   340        0.0004   543        0.0087        0.0000   647367  100.00%
    346   346        0.0007   449        0.0087        0.0000   656848  100.00%
Elapsed time = 443.39 sec. (434363.41 ticks, tree = 8.11 MB, solutions = 8)
    355   355        0.0016   521        0.0087        0.0000   661265  100.00%
    362   362        0.0021   549        0.0087        0.0000   669130  100.00%
    371   371        0.0009   529        0.0087        0.0000   673307  100.00%
    377   377        0.0020   483        0.0087        0.0000   681910  100.00%
    385   385        0.0015   545        0.0087        0.0000   688207  100.00%
    391   391        0.0020   520        0.0087        0.0000   696967  100.00%
    397   397        0.0028   457        0.0087        0.0000   705983  100.00%
    402   402        0.0028   500        0.0087        0.0000   716428  100.00%
    406   406        0.0023   430        0.0087        0.0000   726855  100.00%
    413   413        0.0023   412        0.0087        0.0000   735294  100.00%
Elapsed time = 487.89 sec. (475803.97 ticks, tree = 9.79 MB, solutions = 8)
    419   419        0.0042   512        0.0087        0.0000   742881  100.00%
    427   427        0.0024   519        0.0087        0.0000   748387  100.00%
    436   436        0.0049   433        0.0087        0.0000   754803  100.00%
    443   443        0.0030   542        0.0087        0.0000   759223  100.00%
    450   450        0.0044   452        0.0087        0.0000   765767  100.00%
    459   459        0.0051   439        0.0087        0.0000   769503  100.00%
    460   460        0.0066   309        0.0087        0.0000   771447  100.00%
    468   463        0.0073   490        0.0087        0.0000   779301  100.00%
    479   465        0.0085   490        0.0087        0.0000   789107  100.00%
    484   466        0.0000   260        0.0087        0.0000   795164  100.00%
Elapsed time = 532.00 sec. (516120.96 ticks, tree = 11.11 MB, solutions = 8)
    488   470        0.0000   568        0.0087        0.0000   803392  100.00%
    492   474        0.0000   444        0.0087        0.0000   808531  100.00%
    496   478        0.0000   470        0.0087        0.0000   814397  100.00%
Starting limited solution polishing.
*   500+  480                            0.0086        0.0000           100.00%
    500   482        0.0000   428        0.0086        0.0000   819003  100.00%
    504   486        0.0000   401        0.0086        0.0000   825029  100.00%
    508   490        0.0000   435        0.0086        0.0000   832562  100.00%
    513   495        0.0000   522        0.0086        0.0000   840249  100.00%
    518   500        0.0000   402        0.0086        0.0000   844942  100.00%
    520   502        0.0000   469        0.0086        0.0000   848101  100.00%
    525   507        0.0000   371        0.0086        0.0000   853859  100.00%
Elapsed time = 593.25 sec. (575413.02 ticks, tree = 12.13 MB, solutions = 9)
    529   511        0.0000   701        0.0086        0.0000   859358  100.00%

Zero-half cuts applied:  11

Root node processing (before b&c):
  Real time             =   32.44 sec. (33588.54 ticks)
Sequential b&c:
  Real time             =  567.56 sec. (548471.19 ticks)
                          ------------
Total (root+branch&cut) =  600.00 sec. (582059.73 ticks)
Violation-free sequence bound:	301
Unscheduled:	99
Status:	Feasible
Time:	599.99
Sequence:
	20
	11
	13
	7
	16
	5
	20
	3
	20
	7
	17
	5
	20
	3
	21
	5
	16
	6
	21
	1
	20
	9
	13
	7
	18
	5
	12
	6
	23
	1
	21
	5
	13
	9
	21
	1
	23
	5
	13
	11
	12
	7
	23
	0
	21
	9
	14
	5
	12
	10
	21
	1
	23
	5
	12
	11
	21
	0
	23
	5
	14
	9
	21
	0
	23
	5
	14
	9
	14
	6
	20
	1
	20
	11
	13
	5
	23
	1
	21
	10
	12
	5
	21
	1
	20
	9
	12
	7
	23
	1
	20
	9
	12
	7
	21
	2
	20
	5
	18
	5
	13
	9
	21
	1
	20
	9
	12
	7
	23
	1
	20
	9
	12
	7
	23
	1
	20
	9
	15
	5
	23
	1
	20
	11
	12
	5
	18
	5
	21
	0
	23
	7
	12
	11
	20
	0
	23
	7
	12
	11
	12
	6
	18
	5
	7
	16
	6
	20
	1
	21
	9
	12
	5
	22
	1
	20
	9
	12
	7
	23
	1
	20
	5
	16
	8
	12
	11
	12
	5
	18
	5
	21
	2
	20
	5
	18
	7
	5
	16
	5
	7
	16
	7
	20
	2
	21
	5
	18
	5
	5
	14
	9
	20
	0
	21
	7
	16
	5
	20
	3
	22
	5
	16
	5
	20
	1
	24
	5
	12
	9
	5
	12
	11
	14
	6
	16
	5
	14
	11
	20
	0
	20
	11
	14
	5
	5
	12
	7
	9
	13
	7
	9
	1
	12
	6
	23
	1
	21
	9
	13
	5
	21
	3
	20
	6
	16
	7
	12
	9
	15
	5
	18
	5
	20
	3
	20
	5
	19
	5
	5
	16
	5
	22
	3
	20
	5
	16
	8
	20
	3
	20
	5
	18
	6
	14
	9
	12
	7
	23
	0
	21
	9
	12
	7
	23
	1
	20
	10
	12
	7
	18
	5
	12
	9
	0
	21
	7
	16
	5
	5
	19
	21
	9
	12
	20
	11
	12
	5
	23
	1
	21
	9
	12
	6
	16
	7
	12
	11
	20
	0
	23
	7
	12
	11
	20
	0
	23
	7
	14
	9
	20
	0
	21
	9
	14
	5
	13
	9
	21
	1
	20
	9
	13
	7
	23
	1
	20
	6
	16
	5
	20
	3
	22
	5
	16
	5
	21
	2
	21
	5
	16
	5
	21
	4
	20
	5
	16
	7
	7
	16
	5
	20
	1
	23
	7
	13
	5
	16
	7
	20
	1
	23
	6
	14
	9
	20
	1
	23
	8
	12
	9
	20
	1
	23
	7
	12
	9
	12
	7
	23
Violation-free sequence:
	20
	11
	13
	7
	16
	5
	20
	3
	20
	7
	17
	5
	20
	3
	21
	5
	16
	6
	21
	1
	20
	9
	13
	7
	18
	5
	12
	6
	23
	1
	21
	5
	13
	9
	21
	1
	23
	5
	13
	11
	12
	7
	23
	0
	21
	9
	14
	5
	12
	10
	21
	1
	23
	5
	12
	11
	21
	0
	23
	5
	14
	9
	21
	0
	23
	5
	14
	9
	14
	6
	20
	1
	20
	11
	13
	5
	23
	1
	21
	10
	12
	5
	21
	1
	20
	9
	12
	7
	23
	1
	20
	9
	12
	7
	21
	2
	20
	5
	18
	5
	13
	9
	21
	1
	20
	9
	12
	7
	23
	1
	20
	9
	12
	7
	23
	1
	20
	9
	15
	5
	23
	1
	20
	11
	12
	5
	18
	5
	21
	0
	23
	7
	12
	11
	20
	0
	23
	7
	12
	11
	12
	6
	18
	5
	7
	16
	6
	20
	1
	21
	9
	12
	5
	22
	1
	20
	9
	12
	7
	23
	1
	20
	5
	16
	8
	12
	11
	12
	5
	18
	5
	21
	2
	20
	5
	18
	7
	5
	16
	5
	7
	16
	7
	20
	2
	21
	5
	18
	5
	5
	14
	9
	20
	0
	21
	7
	16
	5
	20
	3
	22
	5
	16
	5
	20
	1
	24
	5
	12
	9
	5
	12
	11
	14
	6
	16
	5
	14
	11
	20
	0
	20
	11
	14
	5
	5
	12
	7
	9
	13
	7
	9
	1
	12
	6
	23
	1
	21
	9
	13
	5
	21
	3
	20
	6
	16
	7
	12
	9
	15
	5
	18
	5
	20
	3
	20
	5
	19
	5
	5
	16
	5
	22
	3
	20
	5
	16
	8
	20
	3
	20
	5
	18
	6
	14
	9
	12
	7
	23
	0
	21
	9
	12
	7
	23
	1
	20
	10
	12
	7
	18
	5
	12
	9
	0
	21
	7
	16
	5
	5
	19
